c This is UnifRandomKSATGenerator
c uniform random 3-SAT generated instance with: 
c clause length: 3 
c number variables: 20 
c number clauses: 85 
c clause to variable ratio: 4.27 
c random number generator name: SHA1PRNG 
c random number generator provider: SUN 
c random number generator seed: 2505467119948934040 
p cnf 20 85
-17 -19 4 0
-11 20 7 0
-18 10 -15 0
-11 20 -16 0
18 -11 -12 0
-19 -4 -8 0
-17 -12 -6 0
8 2 -14 0
9 -4 -13 0
-4 20 14 0
16 -2 -12 0
8 11 5 0
-18 13 -14 0
8 12 5 0
-19 18 -16 0
16 19 13 0
-9 -12 -7 0
-19 -4 -15 0
-1 11 -20 0
1 -19 14 0
-17 1 -11 0
-1 5 6 0
16 -17 -3 0
2 3 5 0
-1 10 5 0
-1 -4 11 0
17 3 5 0
-5 -6 -15 0
-1 -4 -14 0
-13 6 15 0
-18 -12 3 0
-9 6 15 0
-1 6 14 0
8 12 4 0
3 20 14 0
10 18 5 0
-19 -3 -5 0
-10 -11 -14 0
-9 -13 -15 0
-12 -5 -7 0
-1 -17 6 0
1 -12 4 0
1 -20 15 0
1 2 -4 0
-1 17 15 0
-2 11 5 0
-3 11 20 0
-3 19 -14 0
3 19 -7 0
9 -14 6 0
19 12 -15 0
-4 -14 -16 0
-1 -12 -15 0
-2 -10 14 0
-12 -6 13 0
8 18 3 0
-10 -19 -11 0
9 12 20 0
19 20 -16 0
16 -20 11 0
-17 1 7 0
10 5 -15 0
-3 4 -15 0
-1 -11 -15 0
-1 17 18 0
-9 -18 10 0
-3 5 13 0
1 18 13 0
-9 -17 -14 0
4 -8 7 0
8 19 -14 0
16 10 -5 0
-2 14 -15 0
17 2 -13 0
-9 2 14 0
16 -7 6 0
-9 18 2 0
2 -5 14 0
8 12 13 0
8 11 6 0
18 2 -5 0
5 6 -16 0
13 14 -16 0
-17 20 -14 0
-11 12 7 0
